1577 1
52
135 136 137 274 275 152 153 154 1326 1327 1328 1329 1330 1331 1332 201 202 1341 1342 1343 1344 1345 1346 1347 1348 1349 1350 1351 1352 1353 1354 203 1237 1238 1239 1240 1241 1242 1243 1244 1245 1246 1257 1258 1259 1260 1261 1262 1263 1264 1265 200
